100
128
2
41
28
8
37
29
54
1
24
24
55
26
7
14
53
53
13
1
8
63
4
37
8
11
8
26
21
58
47
9
27
16
16
47
60
39
13
33
16
10
61
20
37
61
40
30
14
26
43
51
55
38
24
22
29
14
20
33
50
17
29
25
62
18
26
56
32
22
24
26
14
44
54
34
54
14
64
23
49
41
42
53
33
32
56
29
19
2
21
19
52
29
26
28
42
27
33
35
32
60